(set-logic HORN)
(declare-fun state (Bool Bool Bool Int (Array Int Int) (Array Int Int) Int Int) Bool)
(assert (forall ((|!pc[2]| Bool) (|!pc[1]| Bool) (|!pc[0]| Bool) (|!{N}| Int) (|!{b.2}| (Array Int Int)) (|!{a.1}| (Array Int Int)) (|!{i}| Int) (|proph0| Int) (|proph0.next| Int) (|nondet_int<0>| Int) (|!{b.2}.next| (Array Int Int)) (|%{b.2}#1| (Array Int Int)) (|!{N}.next| Int) (|!{i}.next| Int) (|!{a.1}.next| (Array Int Int)) (|%{a.1}#1| (Array Int Int)) (|!pc[1].next| Bool) (|!pc[0].next| Bool) (|!pc[2].next| Bool) (|%{b.2}#2| (Array Int Int)) (|nondet_char<0>| Int)) (=> (and (and (not |!pc[0]|) (not |!pc[1]|)) (not |!pc[2]|)) (state |!pc[2]| |!pc[1]| |!pc[0]| |!{N}| |!{b.2}| |!{a.1}| |!{i}| |proph0|))))
(assert (forall ((|!pc[2]| Bool) (|!pc[1]| Bool) (|!pc[0]| Bool) (|!{N}| Int) (|!{b.2}| (Array Int Int)) (|!{a.1}| (Array Int Int)) (|!{i}| Int) (|proph0| Int) (|proph0.next| Int) (|nondet_int<0>| Int) (|!{b.2}.next| (Array Int Int)) (|%{b.2}#1| (Array Int Int)) (|!{N}.next| Int) (|!{i}.next| Int) (|!{a.1}.next| (Array Int Int)) (|%{a.1}#1| (Array Int Int)) (|!pc[1].next| Bool) (|!pc[0].next| Bool) (|!pc[2].next| Bool) (|%{b.2}#2| (Array Int Int)) (|nondet_char<0>| Int)) (=> (and (state |!pc[2]| |!pc[1]| |!pc[0]| |!{N}| |!{b.2}| |!{a.1}| |!{i}| |proph0|) (let ((.def_18 (not |!pc[0]|))) (let ((.def_19 (not |!pc[1]|))) (let ((.def_21 (not |!pc[2]|))) (let ((.def_36 (= |!{i}.next| 0))) (let ((.def_44 (not |!pc[1].next|))) (let ((.def_48 (not |!pc[2].next|))) (let ((.def_49 (and (and .def_44 |!pc[0].next|) .def_48))) (let ((.def_54 (= (select |!{b.2}| |!{i}|) 20))) (let ((.def_56 (= |!{b.2}| |!{b.2}.next|))) (let ((.def_58 (= |!{N}| |!{N}.next|))) (let ((.def_60 (= |!{i}| |!{i}.next|))) (let ((.def_62 (= |!{a.1}| |!{a.1}.next|))) (let ((.def_66 (= (select |!{a.1}| |!{i}|) 10))) (let ((.def_68 (<= |!{N}| |!{i}|))) (let ((.def_69 (not .def_68))) (let ((.def_74 (and .def_21 (and |!pc[1]| .def_18)))) (let ((.def_86 (= (+ |!{i}| (* (- 1) |!{i}.next|)) (- 1)))) (let ((.def_87 (and .def_56 .def_58))) (let ((.def_89 (and .def_62 (and .def_86 .def_87)))) (let ((.def_92 (not |!pc[0].next|))) (let ((.def_94 (and .def_48 (and |!pc[1].next| .def_92)))) (let ((.def_123 (= nondet_char<0> 10))) (let ((.def_132 (and .def_21 (and |!pc[0]| .def_19)))) (and (= proph0 proph0.next) (or (or (or (and (and (not (<= nondet_int<0> 0)) (and (and (and (= |!{b.2}.next| |%{b.2}#1|) (= nondet_int<0> |!{N}.next|)) .def_36) (= |!{a.1}.next| |%{a.1}#1|))) (and (and (and .def_18 .def_19) .def_21) .def_49)) (or (or (and (and (and (and (and (and (and (not .def_54) .def_56) .def_58) .def_60) .def_62) .def_66) .def_69) (and (and .def_48 (and |!pc[1].next| |!pc[0].next|)) .def_74)) (and (and .def_69 (and (or (not .def_66) (and .def_54 .def_66)) .def_89)) (and .def_74 .def_94))) (and (and .def_62 (and .def_60 (and .def_58 (and .def_56 .def_68)))) (and .def_74 (and |!pc[2].next| (and .def_44 .def_92)))))) (and .def_89 (and .def_94 (and .def_21 (and |!pc[1]| |!pc[0]|))))) (or (and (and .def_69 (and (and (and .def_86 (and .def_58 (= |!{b.2}.next| |%{b.2}#2|))) (= |!{a.1}.next| (store |!{a.1}| |!{i}| nondet_char<0>))) (or (and (= |%{b.2}#2| (store |!{b.2}| |!{i}| 20)) .def_123) (and (= |!{b.2}| |%{b.2}#2|) (not .def_123))))) (and .def_49 .def_132)) (and (and .def_68 (and .def_62 (and .def_36 .def_87))) (and .def_94 .def_132))))))))))))))))))))))))))))) (state |!pc[2].next| |!pc[1].next| |!pc[0].next| |!{N}.next| |!{b.2}.next| |!{a.1}.next| |!{i}.next| |proph0.next|))))
(assert (forall ((|!pc[2]| Bool) (|!pc[1]| Bool) (|!pc[0]| Bool) (|!{N}| Int) (|!{b.2}| (Array Int Int)) (|!{a.1}| (Array Int Int)) (|!{i}| Int) (|proph0| Int) (|proph0.next| Int) (|nondet_int<0>| Int) (|!{b.2}.next| (Array Int Int)) (|%{b.2}#1| (Array Int Int)) (|!{N}.next| Int) (|!{i}.next| Int) (|!{a.1}.next| (Array Int Int)) (|%{a.1}#1| (Array Int Int)) (|!pc[1].next| Bool) (|!pc[0].next| Bool) (|!pc[2].next| Bool) (|%{b.2}#2| (Array Int Int)) (|nondet_char<0>| Int)) (=> (state |!pc[2]| |!pc[1]| |!pc[0]| |!{N}| |!{b.2}| |!{a.1}| |!{i}| |proph0|) (or (not (= |!{i}| proph0)) (not (and (not |!pc[2]|) (and |!pc[1]| |!pc[0]|)))))))
(check-sat)
